(set-info :smt-lib-version 2.6)
(set-logic LRA)
(set-info :source |
   Monniaux, David; Quantifier Elimination by Lazy Model Enumeration, CAV 2010
|)
(set-info :category "random")
; ./Mjollnir_examples/B4/formula_195.m
(set-info :status unsat)
(assert
 (exists ((|v11:0| Real) )(exists ((|v10:1| Real) )(exists ((|v9:2| Real) )(exists ((|v8:3| Real) )(forall ((|v7:4| Real) )(forall ((|v6:5| Real) )(forall ((|v5:6| Real) )(forall ((|v4:7| Real) )(exists ((|v3:8| Real) )(exists ((|v2:9| Real) )(exists ((|v1:10| Real) )(exists ((|v0:11| Real) )(let ((?x10 9))
(let ((?x210 (- 13)))
(let ((?x217 (* ?x210 |v0:11|)))
(let ((?x615 (+ (+ (+ (* (- 16) |v10:1|) (* 15 |v2:9|)) ?x217) (* 19 |v4:7|))))
(let ((?x99 16))
(let ((?x607 (+ (+ (* ?x99 |v10:1|) (* (- 20) |v10:1|)) (* (- 4) |v5:6|))))
(let ((?x282 (- 12)))
(let ((?x368 (- 10)))
(let ((?x441 (* ?x368 |v3:8|)))
(let ((?x600 (+ (+ (+ (* (- 20) |v7:4|) (* (- 11) |v6:5|)) ?x441) (* (- 9) |v0:11|))))
(let ((?x592 (+ (+ (* (- 2) |v9:2|) (* ?x368 |v1:10|)) (* (- 14) |v10:1|))))
(let (($x602 (and (<= (+ ?x592 (* 14 |v11:0|)) 7) (<= ?x600 ?x282))))
(let (($x618 (and $x602 (and (<= (+ ?x607 (* 8 |v1:10|)) ?x99) (<= ?x615 ?x10)))))
(let ((?x22 2))
(let ((?x582 (+ (+ (* (- 18) |v1:10|) (* (- 2) |v5:6|)) (* (- 6) |v5:6|))))
(let ((?x117 (- 15)))
(let ((?x574 (+ (+ (* (- 20) |v4:7|) (* 17 |v2:9|)) (* (- 18) |v11:0|))))
(let (($x586 (and (<= (+ ?x574 (* (- 16) |v5:6|)) ?x117) (<= (+ ?x582 (* 18 |v5:6|)) ?x22))))
(let ((?x88 (- 18)))
(let ((?x95 13))
(let ((?x304 (* ?x95 |v1:10|)))
(let ((?x567 (+ (+ (+ (* (- 3) |v7:4|) (* ?x99 |v6:5|)) ?x304) (* 8 |v9:2|))))
(let ((?x124 19))
(let ((?x44 (- 5)))
(let ((?x108 (* ?x44 |v6:5|)))
(let ((?x560 (+ (+ (* 6 |v3:8|) (* 20 |v2:9|)) (* 14 |v7:4|))))
(let ((?x41 14))
(let ((?x550 (+ (+ (* ?x99 |v6:5|) (* (- 1) |v11:0|)) (* (- 17) |v9:2|))))
(let ((?x65 6))
(let ((?x273 (* ?x65 |v1:10|)))
(let ((?x545 (+ (+ (* (- 3) |v0:11|) (* (- 3) |v5:6|)) (* ?x99 |v1:10|))))
(let (($x554 (and (<= (+ ?x545 ?x273) ?x41) (<= (+ ?x550 (* 15 |v6:5|)) ?x41))))
(let ((?x536 (+ (+ (* (- 14) |v2:9|) (* ?x22 |v8:3|)) (* 3 |v6:5|))))
(let ((?x49 (- 16)))
(let ((?x529 (+ (+ (* 8 |v5:6|) (* (- 7) |v5:6|)) (* (- 19) |v9:2|))))
(let (($x540 (and (<= (+ ?x529 (* (- 2) |v11:0|)) ?x49) (<= (+ ?x536 (* ?x44 |v7:4|)) ?x210))))
(let ((?x56 (- 2)))
(let ((?x66 (* ?x65 |v0:11|)))
(let ((?x520 (+ (+ (* ?x124 |v7:4|) (* 0 |v6:5|)) (* (- 20) |v9:2|))))
(let ((?x514 (+ (+ (+ (* ?x22 |v9:2|) (* 0 |v8:3|)) (* ?x95 |v7:4|)) ?x108)))
(let ((?x504 (+ (+ (* (- 14) |v0:11|) (* 3 |v3:8|)) (* (- 20) |v6:5|))))
(let ((?x31 12))
(let ((?x176 (- 1)))
(let ((?x268 (* ?x176 |v11:0|)))
(let ((?x129 5))
(let ((?x130 (* ?x129 |v6:5|)))
(let ((?x499 (+ (+ (+ (* 20 |v11:0|) (* (- 14) |v11:0|)) ?x130) ?x268)))
(let (($x524 (and (and (<= ?x499 ?x31) (<= (+ ?x504 (* 20 |v3:8|)) ?x368)) (and (<= ?x514 ?x88) (<= (+ ?x520 ?x66) ?x56)))))
(let (($x620 (or (and $x524 (and $x540 $x554)) (and (and (and (<= (+ ?x560 ?x108) ?x124) (<= ?x567 ?x88)) $x586) $x618))))
(let (($x492 (<= (+ (+ (+ |v9:2| |v8:3|) (* ?x65 |v3:8|)) (* (- 3) |v9:2|)) ?x41)))
(let ((?x36 (- 8)))
(let ((?x118 (* ?x117 |v4:7|)))
(let ((?x484 (+ (+ (* ?x117 |v6:5|) (* 20 |v1:10|)) (* 11 |v0:11|))))
(let ((?x164 0))
(let ((?x477 (+ (+ (* (- 3) |v3:8|) (* (- 9) |v1:10|)) (* ?x368 |v10:1|))))
(let ((?x52 18))
(let ((?x471 (+ (+ (+ (* ?x95 |v9:2|) (* ?x164 |v3:8|)) (* (- 19) |v4:7|)) (* 17 |v8:3|))))
(let (($x494 (and (and (<= ?x471 ?x52) (<= (+ ?x477 (* 8 |v11:0|)) ?x164)) (and (<= (+ ?x484 ?x118) ?x36) $x492))))
(let ((?x459 (+ (+ (* (- 17) |v4:7|) (* (- 4) |v6:5|)) (* (- 17) |v0:11|))))
(let ((?x60 10))
(let ((?x61 (* ?x60 |v5:6|)))
(let ((?x454 (+ (+ (+ (* (- 7) |v9:2|) (* ?x36 |v6:5|)) (* ?x210 |v10:1|)) ?x61)))
(let ((?x110 20))
(let ((?x318 (* ?x110 |v1:10|)))
(let ((?x437 (+ (+ (* (- 19) |v7:4|) (* ?x129 |v9:2|)) (* (- 6) |v6:5|))))
(let (($x448 (and (<= (+ ?x437 (* (- 14) |v8:3|)) ?x60) (<= (+ (+ (+ ?x441 (* ?x22 |v6:5|)) (* ?x41 |v10:1|)) ?x318) ?x164))))
(let (($x464 (and $x448 (and (<= ?x454 ?x52) (<= (+ ?x459 (* (- 7) |v1:10|)) ?x124)))))
(let ((?x19 17))
(let ((?x172 (- 19)))
(let ((?x376 (* ?x172 |v0:11|)))
(let (($x429 (<= (+ (+ (+ |v4:7| (* ?x19 |v9:2|)) (* 8 |v0:11|)) ?x376) ?x19)))
(let ((?x422 (+ (+ (+ (* ?x44 |v5:6|) (* (- 7) |v10:1|)) (* ?x164 |v1:10|)) (* ?x124 |v3:8|))))
(let ((?x413 (+ (+ (+ (* ?x36 |v2:9|) (* (- 17) |v2:9|)) (* ?x88 |v2:9|)) (* 8 |v7:4|))))
(let ((?x133 15))
(let ((?x81 (- 14)))
(let ((?x405 (* ?x81 |v11:0|)))
(let (($x407 (<= (+ (+ (+ (* ?x176 |v9:2|) (* ?x110 |v11:0|)) (* ?x176 |v7:4|)) ?x405) ?x133)))
(let ((?x265 8))
(let ((?x395 (* ?x99 |v6:5|)))
(let (($x397 (<= (+ (+ (+ (* ?x129 |v11:0|) (* ?x52 |v3:8|)) (* ?x65 |v8:3|)) ?x395) ?x265)))
(let ((?x20 (* ?x19 |v7:4|)))
(let ((?x388 (+ (+ (* (- 4) |v4:7|) (* (- 17) |v3:8|)) (* 11 |v8:3|))))
(let ((?x381 (+ (+ (+ (* ?x210 |v4:7|) ?x376) (* (- 17) |v2:9|)) (* ?x22 |v3:8|))))
(let ((?x321 (* ?x129 |v4:7|)))
(let ((?x372 (+ (+ (* (- 3) |v10:1|) (* ?x368 |v7:4|)) (* (- 7) |v11:0|))))
(let (($x399 (and (and (<= (+ ?x372 ?x321) ?x210) (<= ?x381 ?x81)) (and (<= (+ ?x388 ?x20) ?x41) $x397))))
(let (($x432 (and $x399 (and (and $x407 (<= ?x413 ?x22)) (and (<= ?x422 ?x129) $x429)))))
(let ((?x357 (+ (+ (* (- 9) |v11:0|) (* ?x52 |v1:10|)) (* (- 20) |v5:6|))))
(let ((?x352 (+ (+ (+ (* ?x49 |v11:0|) (* ?x117 |v5:6|)) (* (- 11) |v2:9|)) (* ?x36 |v11:0|))))
(let ((?x344 (+ (+ (+ (* ?x88 |v10:1|) (* ?x36 |v7:4|)) (* ?x88 |v7:4|)) (* ?x36 |v4:7|))))
(let ((?x91 (- 11)))
(let ((?x336 (* ?x91 |v2:9|)))
(let ((?x337 (+ (+ (+ (* 7 |v4:7|) (* ?x91 |v4:7|)) (* ?x117 |v3:8|)) ?x336)))
(let (($x362 (and (and (<= ?x337 ?x164) (<= ?x344 ?x164)) (or (<= ?x352 ?x176) (<= (+ ?x357 (* ?x22 |v1:10|)) ?x95)))))
(let ((?x326 (+ (+ (+ ?x321 (* (- 20) |v2:9|)) (* ?x124 |v9:2|)) (* ?x282 |v1:10|))))
(let ((?x104 (- 6)))
(let ((?x319 (+ (+ (+ |v2:9| (* (- 3) |v2:9|)) (* (- 4) |v9:2|)) ?x318)))
(let ((?x311 (+ (+ (+ (* ?x124 |v1:10|) (* ?x31 |v10:1|)) (* ?x133 |v7:4|)) (* ?x41 |v4:7|))))
(let ((?x144 (- 9)))
(let (($x306 (<= (+ (+ (+ (* ?x133 |v3:8|) (* ?x56 |v6:5|)) (* ?x88 |v7:4|)) ?x304) ?x144)))
(let (($x329 (or (and $x306 (<= ?x311 1)) (and (<= ?x319 ?x104) (<= ?x326 ?x110)))))
(let (($x295 (<= (+ (+ (+ (* ?x56 |v0:11|) (* ?x95 |v10:1|)) (* ?x65 |v4:7|)) |v8:3|) ?x95)))
(let ((?x286 (+ (+ (* (- 4) |v6:5|) (* ?x282 |v9:2|)) (* (- 3) |v4:7|))))
(let ((?x151 (- 20)))
(let (($x278 (<= (+ (+ (+ (* ?x133 |v7:4|) ?x273) (* ?x104 |v0:11|)) (* ?x95 |v11:0|)) ?x151)))
(let (($x272 (<= (+ (+ (+ (* ?x265 |v4:7|) (* ?x52 |v10:1|)) ?x268) (* ?x91 |v1:10|)) ?x133)))
(let ((?x258 (+ (+ (* ?x52 |v6:5|) (* 4 |v6:5|)) (* 3 |v9:2|))))
(let ((?x245 (- 7)))
(let ((?x252 (+ (+ (+ (* ?x245 |v3:8|) (* ?x44 |v10:1|)) (* 4 |v9:2|)) (* ?x19 |v3:8|))))
(let ((?x241 (+ (+ (+ (* ?x52 |v1:10|) (* ?x65 |v8:3|)) (* ?x65 |v8:3|)) (* ?x60 |v9:2|))))
(let ((?x234 (+ (+ (+ (* ?x41 |v9:2|) (* ?x104 |v11:0|)) (* ?x31 |v10:1|)) (* 4 |v8:3|))))
(let (($x263 (and (and (<= ?x234 ?x41) (<= ?x241 ?x95)) (and (<= ?x252 ?x245) (<= (+ ?x258 (* ?x124 |v8:3|)) ?x129)))))
(let (($x298 (or $x263 (and (and $x272 $x278) (and (<= (+ ?x286 (* ?x52 |v2:9|)) ?x265) $x295)))))
(let (($x223 (<= (+ (+ (+ (* ?x95 |v4:7|) ?x217) (* ?x10 |v5:6|)) (* ?x44 |v3:8|)) ?x164)))
(let ((?x214 (+ (+ (+ (* ?x104 |v9:2|) (* ?x31 |v0:11|)) (* ?x210 |v8:3|)) (* ?x88 |v0:11|))))
(let ((?x203 (+ (+ (+ (* 11 |v6:5|) (* ?x65 |v10:1|)) (* ?x91 |v6:5|)) (* ?x151 |v8:3|))))
(let ((?x197 3))
(let ((?x196 (+ (+ (+ (* ?x172 |v5:6|) (* ?x133 |v7:4|)) (* ?x22 |v8:3|)) (* ?x44 |v4:7|))))
(let ((?x71 (- 4)))
(let (($x186 (<= (+ (+ (+ (* ?x31 |v3:8|) (* ?x31 |v3:8|)) |v2:9|) (* ?x91 |v6:5|)) ?x71)))
(let ((?x179 4))
(let ((?x178 (+ (+ (+ (* ?x164 |v11:0|) (* ?x52 |v0:11|)) (* ?x172 |v2:9|)) (* ?x176 |v4:7|))))
(let ((?x162 (* ?x65 |v10:1|)))
(let ((?x163 (+ (+ (+ (* (- 3) |v6:5|) (* ?x49 |v1:10|)) (* ?x117 |v3:8|)) ?x162)))
(let ((?x150 (+ (+ (+ (* ?x110 |v9:2|) (* ?x144 |v4:7|)) (* ?x52 |v11:0|)) (* ?x65 |v2:9|))))
(let (($x226 (and (and (and (<= ?x150 ?x151) (<= ?x163 ?x164)) (and (<= ?x178 ?x179) $x186)) (and (and (<= ?x196 ?x197) (<= ?x203 ?x95)) (and (<= ?x214 ?x56) $x223)))))
(let (($x137 (<= (+ (+ (+ (* ?x124 |v9:2|) (* ?x117 |v6:5|)) ?x130) (* ?x133 |v11:0|)) 1)))
(let ((?x120 (- 17)))
(let (($x138 (and (<= (+ (+ (+ ?x108 (* ?x110 |v5:6|)) (* ?x52 |v7:4|)) ?x118) ?x120) $x137)))
(let ((?x102 (* ?x52 |v10:1|)))
(let (($x105 (<= (+ (+ (+ (* ?x95 |v11:0|) (* ?x36 |v3:8|)) (* ?x99 |v8:3|)) ?x102) ?x104)))
(let ((?x90 (+ (+ (+ (* ?x81 |v0:11|) (* ?x71 |v10:1|)) (* ?x65 |v11:0|)) (* ?x88 |v3:8|))))
(let (($x76 (<= (+ (+ (+ ?x66 (* ?x60 |v2:9|)) (* ?x71 |v2:9|)) (* ?x60 |v8:3|)) ?x22)))
(let (($x63 (<= (+ (+ (+ (* ?x49 |v10:1|) (* ?x52 |v8:3|)) (* ?x56 |v0:11|)) ?x61) ?x31)))
(let ((?x43 (+ (+ (+ (* 11 |v9:2|) (* ?x31 |v11:0|)) (* ?x36 |v3:8|)) (* ?x41 |v0:11|))))
(let (($x46 (and (<= (+ (+ (+ (* ?x10 |v8:3|) |v5:6|) (* ?x10 |v6:5|)) ?x20) ?x22) (<= ?x43 ?x44))))
(let (($x140 (and (and $x46 (and $x63 $x76)) (and (and (<= ?x90 ?x91) $x105) $x138))))
(and (and (and $x140 $x226) (and $x298 (and $x329 $x362))) (and (and $x432 (and $x464 $x494)) $x620))))))))))))))))))))))))))))))))))))))))))))))))))))))))))))))))))))))))))))))))))))))))))))))))))))))))))))))))))))))))))))))))))))))))))))
)
)
)
)
)
)
)
)
)
)
)
)
(check-sat)
(exit)

